(define-fun
  h3
  ((x Int)) Int x)
(define-fun
  h2
  ((x Int)) Int (div x 2))
(define-fun
  h1
  ((x Int)) Int x)
(define-fun
  g1
  ((x Int)) Int x)
(define-fun
  g0
  ((x Int)) Int (+ 1 (div x 2)))
(define-fun
  f3
  ((x Int)) Int (div (- x (div (div x 2) 2)) 2))
(define-fun-rec
  u3
  ((x Int) (y Int)) Int (ite (<= x 0) y (f3 (u3 (- x 1) y))))
(define-fun
  v3
  ((x Int)) Int (u3 2 x))
(define-fun
  f2
  ((x Int)) Int (div (mod (+ (+ (v3 x) 1) x) (+ 1 2)) 2))
(define-fun-rec
  u2
  ((x Int) (y Int)) Int (ite (<= x 0) y (f2 (u2 (- x 1) y))))
(define-fun
  v2
  ((x Int)) Int (u2 1 (h2 x)))
(define-fun
  fast
  ((x Int)) Int (mod (+ (v2 x) x) 2))
(define-fun
  f1
  ((x Int)) Int (div x (ite (<= (mod x (+ 2 2)) 0) 1 2)))
(define-fun-rec
  u1
  ((x Int) (y Int)) Int (ite (<= x 0) y (f1 (u1 (- x 1) y))))
(define-fun
  v1
  ((x Int)) Int (u1 x x))
(define-fun-rec
  t0
  ((x Int)) Int (ite (<= (v1 x) 0) x (t0 (+ x 1))))
(define-fun-rec
  u0
  ((x Int)) Int (ite (<= x 0) (t0 0) (t0 (+ (u0 (- x 1)) 1))))
(define-fun
  v0
  ((x Int)) Int (u0 (g0 x)))
(define-fun
  small
  ((x Int)) Int (mod (+ (+ (v0 x) 1) x) 2))
(assert-not
  (forall ((c Int)) (or (not (>= c 0)) (= (small c) (fast c)))))
